111011000001000010001001110010110111100101001111001110101100111101100011110010110001101100010000110001001101000110100110101001000000110100100011111010001010011000100011100110000011010111011011111010100000111011100110000000001100110010101110110010100100010010000111010110000100110101100111100000100000000011010000011001010101101010001100111011100111100000100011000000010101111011110100100110001100111011101011011100110100111110101101111101110010110011010001010001110011011000001000001101101111000010100010000000000000000001000001001111100000010100000010000000001111110010001000100000010010010100000011000101010111101110010110000000110001010110111011110101101011110101011000101100000011010100000000011101101011101000001000000000001010100001111001101101000101100000000011110100101110111011110010010110001111011110110011100101011011100110001100001010111011000110001111100110100101001101000100000111110100011000011110110111000100001011101101110111001100110010011111011101101000100100001001101001010111011101010000000111001000101010101111111110011001011100101000110000111000001101011110100001101110110100001111001011010111100001010001010011010011100100001000011110001111001010000010101101010101001111001000100100000001001101001010001001011101010111111001101110010000011111001011100111110010101000101111001001110000000101110000011010110111011110100111